     60      3     49    557     22
     30     36     30
     16     48     45     29     30     56     36     33     42     22      3      8     14     55     44      3     53      6     58     14     48      7     51     21     53     44     41     12     31     24     20     53     33     57     59     58     14      1     53     14     10     31     52     22     20     32     45     29     24     18     14      7     12     16     38     32     24     58     13     33     20     28      3     49     23     28     31     32      7     14     31     52     10     57     20     58      9      2     23     56     11      5     27     30     42     16     36     35     19     29     14      3     34     43     48     14     21     13     15     27     11     17     28      3      1      1     22     33     47     16     42      3     35     51     15     30     18     48      2     25     49     45     29     16     10     42      5     22     53     12     21     35     13     38     21     12     35      3      8     47     43     38     23     46     45     37     44      8     55     17      4     20     22      0     51     23     44     20     42     40      7     12      4     55     44     14      0     42      2     59     37     45     44     21     34     56     10      2     50     55     53     52     36      7     27     20     22     46     23     38     52     59     44     28     38     14     37      5     36     39     24     48     16     47     58      9     56     53      2      7     57      4     58     12     28     45     27     21     55     36      3     22     44     37      7     30     42     35      4      5      4     27     13     51     55     18     27     29     38     23     13     37     10     53      5      0     35     34     41     28     59     11     52     46     24      2     51     40     23     25     30     12     33     13     35     58     55     45     14     23      5     40     26     44     31     48     46     45     35     33     17     24     11      3     15     12     10     30     22     18     51     33     17     47     23      5     59     39     39     50     45     56     13     34      1     43     11      9     15     59     34     42     24     18     40     49     48     11     23     56     17      5     57     46     25      8     32     18     41     50     21     24     12     33     56     19     17     37      4      4     14      9     47     41     55     58     26     33      0     44     59     42     51     27     16      8      1     44     53      6     13     10     58     28      2     31      4     36     46     27     11     53     39     51     15      1     41     32     17     31     19      8      7     25     18     14     33      0     19     25     10     57      8      0     51      1      5     10     54     14     19     31     29     43     11     15     50     31     45     37     24     55     46     25     11     59      5     23     44     27     18     59     23      9      2     26     51      3     45     21     58      0     22     44     54      9      3      7     11      2      5     31     35     59     23     57      3     55     52     58     30      3     11     47     55     14     50     19     21      0     28     39     43     16     20     27     48     59     50     10     21      6     37     40     57     10     31     53      8     46     13     15     45     34     51     17     37     25     10      8     33     28     36     55     34      5     18     24     40     26     11      3      8     36     15     56      4     17     26      5     55     54     31     52     27      4     50     58     42     14     15     55     11     48     35     43     33     45     34     51     20     48     38     47     26     23     50     53     41     36     58     27     44     33      1     18     15     14     32     50     41     31     58     44      0     48      7     54     27     59     50     58     17     56     50     28      6     34     59     14     53     11     38     56     10      3     16     40     15     33     59     21     24      2     39     53     54     51     49     33      1     32      2     19     47     40     42     35     32     34     24     38     44     58     28     17     13     31      4     43     28     54     51     25     33     59     36     44     29     36     27     54      5      0     59     32     58     28      1     23
     66    -22     38     32    -13     49     22     59      4    100     88    -25     71      5    -19    114     72    113      8    -16     90    -23     70     -6     40     -9      6     29     91     96    106    -11      4     50     73     77     60    113     -7    112     66     13     -1     84     31     24     48     75     80    -18     74     26     70    101     24      7     68     10    102      7    107     89     19     97     75      1     26     43     98     82      9     41    -24     95     72    -22     69    -22     63     70     62     27     49     28    -16     75     93     25     -1     -2
      8     11     10     11	    394    112     22     42      3      0      0      0      0      0     20      0      0      0      0      0      0      0      0      0      0      0      0      0      0    253      0      0      0      0      0      0      0      0      0      0      0      0      0      0      0    311      0    147      0      0      0     48      0      0    182      0      0      0      0    -14      0     43      0      0      0      0      0    -31      0
      7     15     13     11	    151     61     25     33      2      0      0     14      0      0      0      0      0      0      0      0      0    -30      0    -12      0     27      0      0     55      0      0      0      0      0      0     -8      0      0      0      0      0      0      0      0      0      0      0     29      0      0      0      0     47      0      0      0      0      0      0      0    102      0      0      0      7     98      0      0      0
     10     11     14     11	    344     66     46     46      7      0     14      0      0     16      0     -9      0      0      0      0    -37    -46      0      0      0    167    215      0      0      0      0      0      0      0      0      0    159      0      0      0     62      0      0      0      0      0      0      0     69      0     71      0      0      0     82      0      0      0      8      0      0     42      0      0      0    238      0    184     88
     10     10     15     15	    312    153     33     47      7      0      0      0      0      0    -15      0     98      0      0      0      0      0      0      0      0      0      0      0     24    -62      0      0      0      0      8      0      0      0     64      0     69      0    130      0      0      0      0      0      0      0      0      0      0      0      0      0     14      0    -48    -16     50     79      0      0      0      0      0      0      0
      6     13     15     10	    237     51     30     35     10      0      0     16      0      0      0      0      0      0     78      0      0      0     16      0      0      0    171      0      0      0      0      0      0      0     25      0      0      0      0     51      0      0      0      0      0      0      0      0      0      0      0      0      0     55      0      0      0      0      0      0      0     -7      0      0      0      0      0      0    144
      6     13     11     10	    135     71     31     48      6     20      0      0    -15      0      0      0      0     18      0      0      0      0      0      0      0      0    -12     21      0     51      0      0     40      0      0      0      0      0      0     83      0      0      0      0      0      0      0      0      0      0      0     65      0      0      0      0      0      0      0      0     -5      0      0      0      0      0      0      0     99
     12     15     12     15	    383    204     15     25     10      0      0     -9      0      0      0      0      0      0      0      0      0      0    126      0      0      0      0      0      0      0      0      0      0      0      0      0      0      0      0      0      0    106      0      0      0      0      0      0      0      0    -39      0    101      0      0    191      0      0     61      0      0      0      0      0      0    222    183      0      0
      6     10     12     12	    143     52     38     45      1      0      0      0     98      0      0      0      0      0      0      0      0      0      0      0      0      0     26      0      0      0      0      0      0      0      0      0      0      0      0      0      0      0      0      0      0      0     75      0      0      0      0      0      0      0      0     84     56      0     90      0      0      0      0      0      0      0      0      0      0
     12     10     15     13	    135     74     30     35      3      0      0      0      0      0     18      0      0      0      0     97      0      0      0      0      0      0      0      0      0     98      0      0      0      0      0      0      0      0      0      0      0      0      0      0      0      0     31      0      0      0      0    103      0      0      0      0      0      0      0     41      0     72     44      0      0      0     25      0      0
     10     11     13     11	    411    253     13     24      8      0      0      0      0     78      0      0      0      0      0      0      0      0      0     26      0      0      0     -1      0      0     57      0      0      0      0      0      0      0      0      0     10      0      0    160      0      0      0      0      0      0      0      0      0      0      0      0      0      0      0      0      0      0      0     13      0      0      0     81      0
      6     14     12     14	    428    235     42     46      1      0      0      0      0      0      0      0      0     97      0      0      0      0      0      0      0      0      0      0      0    217      0    116      0      0      0      0      0      0     34     71      0      0      0      0    147      0      0    130      0    164     52      0      0     21    196     43      0      0      0      0      0      0     20      0     74    -14     36      0      0
      8     15     13     15	    307    192     25     35     10      0      0    -37      0      0      0      0      0      0      0      0      0      0      0      0      0      0      0      0      0      0      0      0      0      0     54      0    218      0      0      0      0    210      0      0      0     14      0      0     90      0      0      0      0      0     96    -48     36      0      0      0      0     93      0      0      0      0      0      0      0
      8     14     15     14	    296     87     31     38      5      0    -30    -46      0      0      0      0      0      0      0      0      0      0      0      0      0    200      0      0      0      0      0     34     47      0     25      0      0      0      0      0      7      0      0      0    226      0     88      0      0      0      0      0      0      0      0     14      0      0      0     52      0     63      0     -1      0      0      0    204      0
      7     11     15     12	    315    157     36     44      2      0      0      0      0     16      0    126      0      0      0      0      0      0      0      0      0      0    104      0      0      0      0      0      0      0      0      0    -55      0      0      0      0      0      0      0      0      0      0     60      2      0    -42      7      2      0      0      0     65      0      0      0    159      0      0      0     49    168      0      0      0
      8     12     14     15	    179     97     19     26      3      0    -12      0      0      0      0      0      0      0     26      0      0      0      0      0      0    110      0      0     75      0      0     51     39      0      0      0      0     10      0      0      0      0      0      0      0      0      0      0      0      0    -30      0      5    -22      0      0      0      0    111      0      0      0      0      0      0      0      0      0     55
     12     15     10     12	    360    252     41     41      6      0      0      0      0      0      0      0      0      0      0      0      0      0      0      0      0      0     14      0      0      0      0     79      0      0      0      0      0      0      0      0      0    123      0      0      0     33      0      0      0      0      0    -29      0      0      0      0      0      0      0      0      0     25      0     62     96    -16      0      0      0
      9     11     13     10	    310    148     36     42      5      0     27    167      0      0      0      0      0      0      0      0      0    200      0    110      0      0      0      0      0      0      0      0      0      0      0      0      0      0      0      0      0      0      0      0      0     32      0      0      0      0      0      0      0     76      0    110      0      0     31      0      0      0      0      0     26      0      0      0      0
     10     11     13     13	    405    234     20     25      5      0      0    215      0    171    -12      0     26      0      0      0      0      0    104      0     14      0      0      0    161      0    -13     -3     -2      0      0      0      0      0     44      0     55      0      0      0      0    -40     -9      0      0      0      0      0      0    -18      0      0     79    123      0      0      0      0      0      0      0      0      0      0      0
     10     10     14     15	    460    282     42     43      5      0      0      0      0      0     21      0      0      0     -1      0      0      0      0      0      0      0      0      0    -21     56      0      0      0      0     69      0      0      0      0    -27      0    197      0      0      0    299      0      0      0      0      0      0     94      0      0    203    109    205      0      0    -17    -25    -16      0      0     90      0      0      0
      6     11     14     14	    202    131     28     44      9      0     55      0     24      0      0      0      0      0      0      0      0      0      0     75      0      0    161    -21      0      0      0      0      0      0      0      0      0      0      0      0      0      0      0      0      0      0      0      0    -25      0      0      0      0    -24      0      0      0      0      0     36      0      0    -20      0     -4      0      0      0     37
      7     11     11     10	    364     59     25     38      7    253      0      0    -62      0     51      0      0     98      0    217      0      0      0      0      0      0      0     56      0      0      0      0      6      0      0      0      0     67      0      0      0      0      0      0      0     97      0      0      0      0      0      0      0      0      0      0      0     26      0    -17      0      0    -21      0    159    258      0      0      7
      9     11     12     10	    164     64     41     46      3      0      0      0      0      0      0      0      0      0     57      0      0      0      0      0      0      0    -13      0      0      0      0      0      0      0      0      0      0      0     65      0    121     97      0      0     -6     -4      0      0      0      0      0      0      0      0     11      0      0      0      0      0      0      0      0      0      0     23      4      0      0
      8     11     13     12	    177     84     19     31      1      0      0      0      0      0      0      0      0      0      0    116      0     34      0     51     79      0     -3      0      0      0      0      0      0      0      0      0      1      0      0      0      0      0      0      0      0      0      0      0      0      0      0      0      0     68      0      0    106     79    -19      0      0      0      0      0      0    105      0      0     33
     10     13     11     12	    110     62     46     48      7      0      0      0      0      0     40      0      0      0      0      0      0     47      0     39      0      0     -2      0      0      6      0      0      0      0      0      0      0      0     66      0     45      0      0      0     37      0      0      0      0      0      0      0     18      0      0      0     45      0      1      0      0      0      0     -3      0     -8      0      0      0
     10     14     11     13	    434    211     40     45      3      0      0      0      0      0      0      0      0      0      0      0      0      0      0      0      0      0      0      0      0      0      0      0      0      0      0      0      0      0      0      0      0      0     90      0      0     53     23      0      0      0      0      0    138      0      0      0      0      0     50      0      0     61      0      0      0      0      0      0     52
      6     15     10     11	    118     51     35     39      7      0      0      0      8     25      0      0      0      0      0      0     54     25      0      0      0      0      0     69      0      0      0      0      0      0      0      0      0      0      0      0      0      0      0     44      0      0      0      0      0      0     56      0      0      0      0      0      0      0    -10      0      0      0     26     75      0      0      0      0      0
      8     15     11     14	    149     74     13     37      2      0     -8      0      0      0      0      0      0      0      0      0      0      0      0      0      0      0      0      0      0      0      0      0      0      0      0      0    102      0      0      0      0      0      0      0      0      0     68      0      0      0      0      0    117      0      0    101      0      0     98      0      0      0      0      0      0      6      0      0      0
     11     10     10     14	    328    139     18     23      9      0      0    159      0      0      0      0      0      0      0      0    218      0    -55      0      0      0      0      0      0      0      0      1      0      0      0    102      0     58     40      0      0      0      0      0      0     19    -35      0      0      0      0      0      0      0      0      0    -11      0      0      0    -24      0     56      0     53      0      0      0      0
     11     10     13     11	    161    107     36     47      2      0      0      0      0      0      0      0      0      0      0      0      0      0      0     10      0      0      0      0      0     67      0      0      0      0      0      0     58      0      0      0      0      0     83      0      0      0      0      0      0      0      0    -12      0      0      0      0     84      0      0     70      0      0     77      0      0    107      0    -19      0
      7     15     14     14	    100     53     20     21      5      0      0      0     64      0      0      0      0      0      0     34      0      0      0      0      0      0     44      0      0      0     65      0     66      0      0      0     40      0      0      0     58     78      0      0      0      0      0      0      0      0      0     69      0      0      0     17      0      0      0      0      0      0     69     39     76      0      0      0      0
     10     15     12     14	    153     83     38     49     10      0      0      0      0     51     83      0      0      0      0     71      0      0      0      0      0      0      0    -27      0      0      0      0      0      0      0      0      0      0      0      0      0      0      0      0      0      0      0     43      0      0      0      0    -28      0      0      0     94      0      0      0      0      0      0      0    -16      0     41      0      0
      9     14     12     14	    188     64     10     33      6      0      0     62     69      0      0      0      0      0     10      0      0      7      0      0      0      0     55      0      0      0    121      0     45      0      0      0      0      0     58      0      0      0      0      4      0      0      0      0      0      0      0      0    112    -21      0      0      0    -22    125      0      0    -15      0      0      0      0      0      0    110
     11     13     12     15	    450    233     12     20      6      0      0      0      0      0      0    106      0      0      0      0    210      0      0      0    123      0      0    197      0      0     97      0      0      0      0      0      0      0     78      0      0      0      0      0      0     75      0      0    106      0      0      0      0      0      0    113      0      0      0      0      0      0      0      0      0      0      0      0      0
     12     13     15     14	    281    174     18     45      2      0      0      0    130      0      0      0      0      0      0      0      0      0      0      0      0      0      0      0      0      0      0      0      0     90      0      0      0     83      0      0      0      0      0      0      0      0      0      0      0      0      0      0      0      0      0     40      0    192     34      0      0      0     55      0      0      0      0    217      0
      9     15     11     14	    463    229     43     44      5      0      0      0      0      0      0      0      0      0    160      0      0      0      0      0      0      0      0      0      0      0      0      0      0      0     44      0      0      0      0      0      4      0      0      0      0      0      0      0      0      0      0      0      0      0      0      0      0     31      0      0     93    114      0      0      0      0      0      0    156
      6     13     11     11	    471    280     44     46      3      0      0      0      0      0      0      0      0      0      0    147      0    226      0      0      0      0      0      0      0      0     -6      0     37      0      0      0      0      0      0      0      0      0      0      0      0      0      4      0      0      0      0     44     54      0      0      0      0      0     64      0      0      0      0      0    117      0    152      0     90
     11     12     13     13	    421    159     28     35      5    311      0      0      0      0      0      0      0      0      0      0     14      0      0      0     33     32    -40    299      0     97     -4      0      0     53      0      0     19      0      0      0      0     75      0      0      0      0    110      0      0      0      0      0      0     95    195    110      0      2      0      0      0     39     16      0      0      0      0    207      0
      7     15     12     10	    199    118      9     40      4      0      0      0      0      0      0      0     75     31      0      0      0     88      0      0      0      0     -9      0      0      0      0      0      0     23      0     68    -35      0      0      0      0      0      0      0      4    110      0      0      0      0      0      0      0      0      0    127      0      0    137      0      0      0      0      0      0      0      0      0      0
      9     11     14     15	    311    175     35     43      9    147     29      0      0      0      0      0      0      0      0    130      0      0     60      0      0      0      0      0      0      0      0      0      0      0      0      0      0      0      0     43      0      0      0      0      0      0      0      0      0     80    190      0      0      0      0      0      0      0      0      0      0      0      0     66      0      0      0      0    173
     11     15     12     13	    138     90     12     30      9      0      0     69      0      0      0      0      0      0      0      0     90      0      2      0      0      0      0      0    -25      0      0      0      0      0      0      0      0      0      0      0      0    106      0      0      0      0      0      0      0      0      0      0      0      0     56      0      0      1     89      0      0      0      0      0     21      0      0      0      0
     12     10     15     15	    386     99     13     45      8      0      0      0      0      0      0      0      0      0      0    164      0      0      0      0      0      0      0      0      0      0      0      0      0      0      0      0      0      0      0      0      0      0      0      0      0      0      0     80      0      0      0      0      0      6      0      0      0    208    154      0      0      0      0      0      0      0      0      0      0
      8     13     14     11	    380     82     30     34      5      0      0     71      0      0      0    -39      0      0      0     52      0      0    -42    -30      0      0      0      0      0      0      0      0      0      0     56      0      0      0      0      0      0      0      0      0      0      0      0    190      0      0      0     64      0      0      0      0      0      0      0      0     14    111      0      0      0      0      0      0      0
      8     11     13     11	    155     69     34     44      8     48      0      0      0      0     65      0      0    103      0      0      0      0      7      0    -29      0      0      0      0      0      0      0      0      0      0      0      0    -12     69      0      0      0      0      0     44      0      0      0      0      0     64      0      0      0     22      0      0      0      0      0      0      0      0      0      0      0      0      0      0
     11     13     15     14	    184     91     23     27      4      0     47      0      0      0      0    101      0      0      0      0      0      0      2      5      0      0      0     94      0      0      0      0     18    138      0    117      0      0      0    -28    112      0      0      0     54      0      0      0      0      0      0      0      0      0     19      0      0      0      0      0      0      0     58      0      0      0      0      0      0
      9     14     15     13	    164     71     29     45      7      0      0      0      0     55      0      0      0      0      0     21      0      0      0    -22      0     76    -18      0    -24      0      0     68      0      0      0      0      0      0      0      0    -21      0      0      0      0     95      0      0      0      6      0      0      0      0      0     63     12      0      0      0      0      0      0      0      0      0     97      0      0
     12     11     10     10	    359    239     47     47      7    182      0     82      0      0      0      0      0      0      0    196     96      0      0      0      0      0      0      0      0      0     11      0      0      0      0      0      0      0      0      0      0      0      0      0      0    195      0      0     56      0      0     22     19      0      0      0      0      0      0      0     -1      0      0     72      0      0      0      0     30
      6     10     14     13	    262    131     24     38      8      0      0      0      0      0      0    191     84      0      0     43    -48     14      0      0      0    110      0    203      0      0      0      0      0      0      0    101      0      0     17      0      0    113     40      0      0    110    127      0      0      0      0      0      0     63      0      0      0      0      0      0      0      0      0      0      0     64      0      0      0
      8     15     12     15	    144     72     42     42      9      0      0      0     14      0      0      0     56      0      0      0     36      0     65      0      0      0     79    109      0      0      0    106     45      0      0      0    -11     84      0     94      0      0      0      0      0      0      0      0      0      0      0      0      0     12      0      0      0     17      0      0      0      0     65      0      0      0     90      0      0
      7     12     10     14	    280    170     43     46      4      0      0      0      0      0      0      0      0      0      0      0      0      0      0      0      0      0    123    205      0     26      0     79      0      0      0      0      0      0      0      0    -22      0    192     31      0      2      0      0      1    208      0      0      0      0      0      0     17      0    168      0    139      0     18      0      0    -21      0      0      0
     12     10     11     15	    322    138     28     28      2      0      0      8    -48      0      0     61     90      0      0      0      0      0      0    111      0     31      0      0      0      0      0    -19      1     50    -10     98      0      0      0      0    125      0     34      0     64      0    137      0     89    154      0      0      0      0      0      0      0    168      0      0      0      0      0     10      0      0      0      0      0
      6     15     14     14	    101     57      9     34      6    -14      0      0    -16      0      0      0      0     41      0      0      0     52      0      0      0      0      0      0     36    -17      0      0      0      0      0      0      0     70      0      0      0      0      0      0      0      0      0      0      0      0      0      0      0      0      0      0      0      0      0      0      0      0      0      0      0      0      0    -11     23
     11     11     12     15	    207     53     32     44      1      0    102      0     50      0     -5      0      0      0      0      0      0      0    159      0      0      0      0    -17      0      0      0      0      0      0      0      0    -24      0      0      0      0      0      0     93      0      0      0      0      0      0     14      0      0      0     -1      0      0    139      0      0      0      0      0      0      0      0      0      0      0
      7     11     12     11	    187    117     39     42      9     43      0     42     79     -7      0      0      0     72      0      0     93     63      0      0     25      0      0    -25      0      0      0      0      0     61      0      0      0      0      0      0    -15      0      0    114      0     39      0      0      0      0    111      0      0      0      0      0      0      0      0      0      0      0      0      0      0      0      0      0      0
      9     11     10     15	    114     68     27     33      6      0      0      0      0      0      0      0      0     44      0     20      0      0      0      0      0      0      0    -16    -20    -21      0      0      0      0     26      0     56     77     69      0      0      0     55      0      0     16      0      0      0      0      0      0     58      0      0      0     65     18      0      0      0      0      0      0     39      0     45      0      0
      6     10     10     14	    109     71     34     36      4      0      0      0      0      0      0      0      0      0     13      0      0     -1      0      0     62      0      0      0      0      0      0      0     -3      0     75      0      0      0     39      0      0      0      0      0      0      0      0     66      0      0      0      0      0      0     72      0      0      0     10      0      0      0      0      0      0      0      0     48      0
      6     12     13     11	    444     88     43     44      6      0      7      0      0      0      0      0      0      0      0     74      0      0     49      0     96     26      0      0     -4    159      0      0      0      0      0      0     53      0     76    -16      0      0      0      0    117      0      0      0     21      0      0      0      0      0      0      0      0      0      0      0      0      0     39      0      0      0      0    277      0
      7     13     12     15	    384    190     18     33      3      0     98    238      0      0      0    222      0      0      0    -14      0      0    168      0    -16      0      0     90      0    258     23    105     -8      0      0      6      0    107      0      0      0      0      0      0      0      0      0      0      0      0      0      0      0      0      0     64      0    -21      0      0      0      0      0      0      0      0      0    196    -37
      6     15     10     13	    414    259     14     44      7      0      0      0      0      0      0    183      0     25      0     36      0      0      0      0      0      0      0      0      0      0      4      0      0      0      0      0      0      0      0     41      0      0      0      0    152      0      0      0      0      0      0      0      0     97      0      0     90      0      0      0      0      0     45      0      0      0      0      0      0
      7     12     12     15	    465     77     31     39      1    -31      0    184      0      0      0      0      0      0     81      0      0    204      0      0      0      0      0      0      0      0      0      0      0      0      0      0      0    -19      0      0      0      0    217      0      0    207      0      0      0      0      0      0      0      0      0      0      0      0      0    -11      0      0      0     48    277    196      0      0      0
      9     13     13     14	    231     72     48     49      1      0      0     88      0    144     99      0      0      0      0      0      0      0      0     55      0      0      0      0     37      7      0     33      0     52      0      0      0      0      0      0    110      0      0    156     90      0      0    173      0      0      0      0      0      0     30      0      0      0      0     23      0      0      0      0      0    -37      0      0      0